treewidth/data/MarkstroemGraph.gr
p tw 24 36
1 2
1 23
1 24
2 13
2 4
13 18
13 4
18 19
18 5
19 20
19 7
20 21
20 7
21 22
21 8
22 23
22 10
23 10
24 3
24 11
3 4
3 11
5 6
5 12
6 7
6 12
8 9
8 14
9 10
9 14
11 15
12 16
14 17
15 16
15 17
16 17
