treewidth/data/MarkstroemGraph.td
c width = 4, time = 0.146933
s td 14 5 24
b 1 7 14 15 18 23
b 2 2 3 15 18 23
b 3 2 3 15 23 24
b 4 1 2 23 24
b 5 3 11 15 24
b 6 2 3 4 13 18
b 7 7 12 14 15 18
b 8 5 6 7 12 18
b 9 12 14 15 16 17
b 10 7 14 18 21 23
b 11 9 14 21 22 23
b 12 8 9 14 21
b 13 9 10 22 23
b 14 7 18 19 20 21
3 4
3 5
2 3
2 6
1 2
7 8
7 9
1 7
11 12
11 13
10 11
10 14
1 10
